c Generated map
c Size: 8 * 8, weights in range: 1 to 10, walls: True, with ratio 0.05
c dim 4 of 8
c
p sp 64 104
c graph contains 64 nodes and 104 arcs
c
a 1 9 1
a 9 1 1
a 1 2 1
a 2 1 1
a 2 10 7
a 10 2 7
a 2 3 8
a 3 2 8
a 3 11 8
a 11 3 8
a 3 4 9
a 4 3 9
a 4 12 8
a 12 4 8
a 4 5 9
a 5 4 9
a 5 13 4
a 13 5 4
a 5 6 4
a 6 5 4
a 6 14 3
a 14 6 3
a 6 7 2
a 7 6 2
a 7 15 9
a 15 7 9
a 9 17 10
a 17 9 10
a 9 10 6
a 10 9 6
a 10 18 10
a 18 10 10
a 10 11 10
a 11 10 10
a 11 19 7
a 19 11 7
a 11 12 3
a 12 11 3
a 12 20 7
a 20 12 7
a 12 13 6
a 13 12 6
a 13 21 3
a 21 13 3
a 13 14 1
a 14 13 1
a 14 22 6
a 22 14 6
a 14 15 2
a 15 14 2
a 15 23 8
a 23 15 8
a 15 16 6
a 16 15 6
a 16 24 2
a 24 16 2
a 17 25 7
a 25 17 7
a 17 18 1
a 18 17 1
a 18 26 9
a 26 18 9
a 18 19 2
a 19 18 2
a 19 27 7
a 27 19 7
a 19 20 6
a 20 19 6
a 20 28 2
a 28 20 2
a 20 21 8
a 21 20 8
a 21 29 6
a 29 21 6
a 21 22 5
a 22 21 5
a 22 30 6
a 30 22 6
a 22 23 8
a 23 22 8
a 23 31 10
a 31 23 10
a 23 24 4
a 24 23 4
a 24 32 2
a 32 24 2
a 25 33 4
a 33 25 4
a 25 26 1
a 26 25 1
a 26 34 3
a 34 26 3
a 26 27 8
a 27 26 8
a 27 35 1
a 35 27 1
a 27 28 8
a 28 27 8
a 28 36 7
a 36 28 7
a 28 29 2
a 29 28 2
a 29 37 9
a 37 29 9
a 29 30 1
a 30 29 1
a 30 38 9
a 38 30 9
a 30 31 3
a 31 30 3
a 31 39 1
a 39 31 1
a 31 32 4
a 32 31 4
a 33 41 9
a 41 33 9
a 33 34 2
a 34 33 2
a 34 42 3
a 42 34 3
a 34 35 5
a 35 34 5
a 35 43 4
a 43 35 4
a 35 36 10
a 36 35 10
a 36 44 1
a 44 36 1
a 36 37 3
a 37 36 3
a 37 45 9
a 45 37 9
a 37 38 3
a 38 37 3
a 38 46 7
a 46 38 7
a 38 39 4
a 39 38 4
a 39 47 2
a 47 39 2
a 41 49 2
a 49 41 2
a 41 42 8
a 42 41 8
a 42 50 7
a 50 42 7
a 42 43 10
a 43 42 10
a 43 51 4
a 51 43 4
a 43 44 4
a 44 43 4
a 44 52 3
a 52 44 3
a 44 45 2
a 45 44 2
a 45 53 10
a 53 45 10
a 45 46 2
a 46 45 2
a 46 54 5
a 54 46 5
a 46 47 4
a 47 46 4
a 47 55 5
a 55 47 5
a 47 48 2
a 48 47 2
a 48 56 8
a 56 48 8
a 49 57 5
a 57 49 5
a 49 50 10
a 50 49 10
a 50 58 9
a 58 50 9
a 50 51 9
a 51 50 9
a 51 59 3
a 59 51 3
a 51 52 1
a 52 51 1
a 52 60 5
a 60 52 5
a 52 53 3
a 53 52 3
a 53 54 4
a 54 53 4
a 54 62 2
a 62 54 2
a 54 55 4
a 55 54 4
a 55 63 8
a 63 55 8
a 55 56 1
a 56 55 1
a 56 64 9
a 64 56 9
a 57 58 7
a 58 57 7
a 58 59 3
a 59 58 3
a 59 60 7
a 60 59 7
a 62 63 9
a 63 62 9
a 63 64 1
a 64 63 1
